c 1 = loiro
c 2 = sabado
c 3 = adulto
c 4 = chapeu
c 5 = anel

p cnf 5 6
-1 -2 0
3 4 0
5 -4 0
-2 3 0
-3 5 0
-5 1 0

c Quem usa anel nao pode ir ao sabado
c 5 0
c 2 0

c pode um socio de chapeu ser loiro
c -1 -4 0

c a associacao nao pode ter socios adultos
c 3 0
